benchmarks/bfuzz0/1672920581108371625517763325703042832321.smt2
(set-logic QF_FP)
(declare-const x0 (_ FloatingPoint 11 53))
(declare-const x1 (_ FloatingPoint 11 53))
(declare-const x2 (_ FloatingPoint 11 53))
(declare-const x3 (_ FloatingPoint 11 53))
(declare-const x4 (_ FloatingPoint 11 53))
(declare-const x5 (_ FloatingPoint 11 53))
(declare-const x6 (_ FloatingPoint 11 53))
(declare-const x7 (_ FloatingPoint 11 53))
(assert (fp.leq (fp.sub RNE (fp.mul RNE x0 x3) (fp.add RNE x3 x7)) (fp.add RNE (fp.div RNE x4 x2) (fp.add RNE x1 x6))))
(assert (fp.leq (fp.add RNE (fp.sub RNE x3 x2) (fp.sub RNE x0 x1)) (fp.div RNE (fp.mul RNE x5 x5) (fp.mul RNE x5 x4))))
(assert (fp.geq (fp.neg (fp.mul RNE x2 x2)) (fp.mul RNE (fp.sub RNE x2 x2) (fp.add RNE x2 x0))))
(assert (fp.leq (fp.sub RNE (fp.mul RNE x2 x2) (fp.mul RNE x0 x4)) (fp.mul RNE (fp.div RNE x1 x5) (fp.neg x5))))
(assert (fp.lt (fp.div RNE (fp.sub RNE x1 x6) (fp.neg x7)) (fp.sub RNE (fp.add RNE x6 x1) (fp.mul RNE x0 x1))))
(check-sat)
