db/data/1672920581108371625517763325703042832321.z3.out
-------------------
2500.113262327
